103 6
10 10 10 10 10 10
1 0 0 0 0 0 0 3 2 3 4
10 0 0 0 0 10 9 2 7 8
9 10 0 0 9 3 9 3 5 6 8
1 0 8 0 3 0 0 2 5 8
4 0 0 0 0 0 0 2 10 11
5 9 9 3 0 0 0 3 10 11 12
3 2 10 6 10 10 4 2 9 10
6 0 0 10 0 0 0 1 11
11 8 0 5 6 7 6 1 15
3 10 10 10 0 7 8 3 13 14 16
7 0 0 8 0 0 7 1 15
4 0 4 7 8 0 9 1 14
5 0 0 0 0 0 8 2 17 20
9 0 0 0 9 0 10 2 17 19
4 6 0 0 10 8 4 2 18 19
4 0 10 0 6 0 0 2 19 20
1 0 0 0 0 10 0 1 23
4 6 0 0 0 6 6 2 23 24
5 0 6 10 0 0 0 4 21 22 23 24
9 7 0 0 10 9 0 1 23
10 4 0 6 0 10 0 1 27
9 0 10 0 5 0 0 2 26 27
2 0 0 0 0 6 0 2 25 28
11 0 8 0 0 9 10 2 26 27
7 0 10 0 9 8 0 2 29 31
2 0 9 9 4 0 10 2 31 32
6 0 3 0 5 0 0 2 30 31
4 0 0 0 8 10 0 3 29 30 31
8 0 0 0 3 0 0 3 34 35 36
7 2 9 6 6 0 0 2 33 34
8 8 0 0 10 8 7 3 33 34 36
1 10 0 10 0 0 9 2 34 36
2 0 10 0 0 0 0 3 37 38 40
2 4 0 4 0 0 8 4 37 38 39 40
8 10 8 6 4 10 0 2 37 38
9 2 0 10 4 0 6 3 37 38 39
5 10 0 4 0 3 10 4 41 42 43 44
9 0 0 7 0 0 0 2 42 43
9 10 0 0 3 10 0 2 42 43
1 6 0 7 10 0 0 3 41 42 43
3 7 10 4 8 0 4 1 48
2 10 0 0 3 0 6 4 45 46 47 48
8 0 10 0 9 10 9 3 46 47 48
3 0 0 0 10 0 8 2 46 48
4 10 6 10 4 0 0 2 49 51
4 0 7 4 4 0 0 2 49 51
7 6 7 0 4 5 0 1 49
8 0 8 0 0 7 0 3 49 50 52
7 10 10 0 0 10 2 2 55 56
6 7 10 0 8 9 10 2 54 56
8 8 0 0 0 10 0 2 53 56
1 2 0 0 8 4 0 2 55 56
3 0 10 9 0 0 0 1 59
7 0 0 0 10 3 6 1 58
10 4 0 0 0 0 0 3 57 58 60
1 0 7 3 10 0 0 2 57 60
10 0 7 0 4 7 2 2 62 64
5 0 10 0 0 10 0 3 61 63 64
5 2 6 0 4 0 0 3 61 62 63
6 0 6 5 3 10 0 1 62
1 0 4 0 0 0 9 2 67 68
10 8 9 0 0 7 6 2 65 67
10 5 0 6 0 4 0 3 65 66 67
6 9 5 10 0 10 2 2 65 67
10 0 6 10 0 0 3 3 70 71 72
1 5 0 4 0 0 3 3 69 71 72
9 7 9 0 0 0 0 3 70 71 72
6 9 6 0 6 6 0 2 70 72
6 0 10 10 4 0 9 1 75
7 8 0 0 0 4 10 3 73 74 75
10 4 6 4 0 0 6 2 75 76
3 0 0 10 0 6 10 2 73 75
8 0 0 9 0 0 0 2 79 80
3 6 0 0 0 8 0 2 77 79
10 4 0 7 6 0 2 1 77
2 4 10 0 0 3 7 1 78
9 0 0 10 0 0 0 2 83 84
5 0 0 0 0 0 7 3 81 83 84
9 0 0 0 0 0 0 1 82
6 7 9 9 0 0 4 3 81 82 83
4 10 0 6 7 0 9 4 85 86 87 88
1 0 0 0 10 0 8 4 85 86 87 88
7 8 9 9 10 10 10 2 87 88
4 7 4 0 0 8 0 3 86 87 88
1 4 0 7 10 0 6 1 92
8 0 0 10 3 6 0 3 89 90 91
7 10 9 10 0 0 0 3 89 91 92
6 10 0 5 6 10 7 1 91
1 5 10 0 8 0 0 3 93 94 95
8 10 4 10 0 10 0 1 93
8 0 0 10 3 10 0 1 96
2 0 8 0 0 0 0 3 93 95 96
2 0 0 3 10 0 0 1 100
5 0 9 0 6 0 8 2 97 99
10 0 0 0 0 0 10 1 98
2 10 4 0 0 7 3 1 100
9 10 0 0 4 10 10 1 102
7 9 6 0 0 5 8 1 101
6 6 8 4 10 0 9 1 102
5 0 0 10 0 0 0 1 102
2 2 0 0 10 9 2 1 103
6 0 0 6 8 0 5 1 103
0 0 0 0 0 0 0 0
